100
1000
200
200
199
199
198
198
197
196
195
193
193
192
192
191
189
188
188
187
187
186
185
185
185
185
185
184
183
182
181
181
181
181
180
180
180
180
180
180
179
178
178
178
178
177
177
177
177
177
175
174
174
172
171
170
169
169
168
168
168
167
167
166
166
166
166
166
165
165
164
163
163
163
163
163
163
162
162
162
161
160
159
159
159
159
159
156
156
156
156
155
155
154
153
152
152
151
150
150
150
150
